1224014
55,19,20,95,29,9,76,68,5,40,17,74,61,48,54,71,43,88,7,84,2,4,63,26,1,66,81,14,60,15,57,82,13,38,6,44,80,85,27,45,70,89,33,10,97,53,22,64,24,50,11,18,25,77,78,28,39,16,93,58,23,42,51,91,83,21,72,94,3,65,46,32,56,8,69,47,31,73,0,36,75,86,37,67,35,90,52,41,34,96,87,49,98,79,12,62,92,30,59